NAME : morphed20-5-17
COMMENT : Generated using the function morphInstances from the R-package netgen (Bossek,2015) - Number of clusters: 5 Alpha: 0.5
TYPE : TSP
DIMENSION : 20
EDGE_WEIGHT_TYPE : EUC_2D
NODE_COORD_SECTION
1 12.2352453682 87.1623456755
2 81.1672464649 58.3892148187
3 43.2928446376 61.3979084172
4 72.8626759369 70.266731914
5 24.9204819374 92.9510942605
6 65.2980655718 5.0354636557
7 27.764342965 50.0319423478
8 27.0243122637 49.6521041957
9 72.0084969042 79.4196299568
10 28.5177927305 29.3802497373
11 41.9000414501 45.0662582803
12 20.7949296003 21.1816416659
13 75.6214999308 68.7684600567
14 83.4612009712 20.349000652
15 94.6370317756 34.9727711721
16 94.8759958277 14.0550132776
17 52.7013105012 54.1170691248
18 21.1634387358 74.3609212867
19 56.0600914815 56.1058815038
20 33.3333451995 80.8236225029
EOF
